(set-logic QF_S)
(declare-fun T_6 () Bool)
(declare-fun T_7 () Bool)
(declare-fun T_SELECT_2 () Bool)
(declare-fun I0_7 () Int)
(declare-fun PCTEMP_LHS_2 () Int)
(declare-fun T0_7 () String)
(declare-fun T1_7 () String)
(declare-fun T2_7 () String)
(declare-fun T3_7 () String)
(declare-fun T4_7 () String)
(declare-fun T5_7 () String)
(declare-fun var_0xINPUT_1380 () String)
(assert (= var_0xINPUT_1380 (str.++ T0_7 T1_7)))
(assert (= T1_7 (str.++ T2_7 T3_7)))
(assert (= T2_7 (str.++ T4_7 T5_7)))
(assert (not (str.in.re T4_7 (str.to.re "#"))))
(assert (= T5_7 "#"))
(assert T_7)
(assert (= T_7 (not T_6)))
(assert (= T_6 (= PCTEMP_LHS_2 (- 1))))
(assert (= PCTEMP_LHS_2 (+ I0_7 0)))
(assert (= T_SELECT_2 (not (= PCTEMP_LHS_2 (- 1)))))
(assert (= 0 (str.len T0_7))) ; len 0
(assert (= I0_7 (str.len T4_7))) ; len 1
(assert T_SELECT_2)
(check-sat)
